20	5
0	4	2	3	4	1
1	1	12
2	1	17
3	2	17	5
4	1	14
5	0
6	1	19
7	2	18	21
8	2	21	7
9	1	20
10	1	6
11	1	9
12	1	15
13	0
14	1	8
15	1	19
16	1	13
17	1	10
18	1	21
19	1	21
20	1	21
21	0
0	0	0	0	0	0	0
1	1	2	4	2	3	4
2	4	1	3	5	3	3
3	4	3	5	4	3	5
4	2	2	1	3	5	2
5	7	1	3	5	4	4
6	10	1	4	1	4	4
7	6	2	5	5	3	1
8	4	4	1	5	4	5
9	7	3	2	5	2	4
10	5	4	2	3	3	2
11	1	5	2	3	4	5
12	3	4	4	2	3	2
13	10	3	1	4	5	3
14	2	2	5	4	1	1
15	6	1	5	2	4	5
16	2	2	2	4	4	5
17	2	3	5	4	4	4
18	2	4	3	1	1	5
19	2	3	1	5	5	2
20	4	4	3	1	5	5
21	0	0	0	0	0	0
5	5	5	5	5
